============================[ Problem Statistics ]=============================|                                                                             ||  Number of variables:          4242                                         ||  Number of clauses:            9774                                         ||  Parse time:                   0.18 s                                       ||                                                                             |============================[ Search Statistics ]==============================| Conflicts |          ORIGINAL         |          LEARNT          | Progress ||           |    Vars  Clauses Literals |    Limit  Clauses Lit/Cl |          |===============================================================================|       100 |    1591     5979   259990 |     2192      100     53 | 62.501 % |===============================================================================restarts              : 2conflicts             : 105            (343 /sec)decisions             : 277            (0.00 % random) (905 /sec)propagations          : 9859           (32219 /sec)conflict literals     : 5709           (95.92 % deleted)CPU time              : 0.306 sSATISFIABLE